2529115174835340 4 0
329783034729182239 3 0
1339460309104540 -1 0
31488218618780383 5 0
4872599132472546836 4 0
1860997984671854 -1 0
27129270647649903 6 0
5378825467739610 -2 0
716289530052780 -3 0
11003272900762107 3 -1 0
33733409416448409 6 0
4876036974577305970 5 0
25318907865053698 5 0
23820929716930794 3 0
10175925698862475 6 0
19625985794973284 4 0
